c uprop, v00.0, 
c reading from data/prog766.c.cnf
c done reading: 0.004386
p cnf 126 547
-65 -79 0
65 79 0
-70 -90 0
70 90 0
-75 -77 0
75 77 0
-82 -86 0
82 86 0
-73 -88 0
73 88 0
-84 -92 0
84 92 0
-62 -68 0
62 68 0
-61 65 0
61 -65 0
-60 -65 0
60 65 0
59 -65 -70 0
59 -61 -70 0
59 -61 -65 0
-59 65 70 0
-59 61 70 0
-59 61 65 0
-58 -59 70 0
-58 -59 65 0
-58 -59 61 0
58 59 -70 0
58 59 -65 0
58 59 -61 0
58 -61 -65 -70 0
-58 61 65 70 0
57 -70 -75 0
57 -59 -75 0
57 -59 -70 0
-57 70 75 0
-57 59 75 0
-57 59 70 0
-56 -57 75 0
-56 -57 70 0
-56 -57 59 0
56 57 -75 0
56 57 -70 0
56 57 -59 0
56 -59 -70 -75 0
-56 59 70 75 0
55 -75 -82 0
55 -57 -82 0
55 -57 -75 0
-55 75 82 0
-55 57 82 0
-55 57 75 0
-54 -55 82 0
-54 -55 75 0
-54 -55 57 0
54 55 -82 0
54 55 -75 0
54 55 -57 0
54 -57 -75 -82 0
-54 57 75 82 0
53 -82 -88 0
53 -55 -88 0
53 -55 -82 0
-53 82 88 0
-53 55 88 0
-53 55 82 0
-52 -53 88 0
-52 -53 82 0
-52 -53 55 0
52 53 -88 0
52 53 -82 0
52 53 -55 0
52 -55 -82 -88 0
-52 55 82 88 0
51 -88 -92 0
51 -53 -92 0
51 -53 -88 0
-51 88 92 0
-51 53 92 0
-51 53 88 0
-50 -51 92 0
-50 -51 88 0
-50 -51 53 0
50 51 -92 0
50 51 -88 0
50 51 -53 0
50 -53 -88 -92 0
-50 53 88 92 0
49 -68 -92 0
49 -51 -68 0
49 -51 -92 0
-49 68 92 0
-49 51 68 0
-49 51 92 0
-49 -63 68 0
-49 -63 92 0
-49 51 -63 0
49 63 -68 0
49 63 -92 0
49 -51 63 0
-51 63 -68 -92 0
51 -63 68 92 0
-66 68 0
49 -66 0
-49 66 -68 0
-49 -68 -71 0
49 68 -71 0
49 -68 71 0
-49 68 71 0
-60 -83 0
60 83 0
-58 -93 0
58 93 0
-56 -94 0
56 94 0
-54 -97 0
54 97 0
-52 -100 0
52 100 0
-50 -103 0
50 103 0
-63 -106 0
63 106 0
-71 -107 0
71 107 0
-66 -108 0
66 108 0
-96 -109 0
-109 -111 0
96 109 111 0
96 111 -112 0
-96 -111 -112 0
-96 111 112 0
96 -111 112 0
109 -113 0
-99 -113 0
99 -109 113 0
99 -109 -114 0
-99 109 -114 0
99 109 114 0
-99 -109 114 0
113 -115 0
-115 -117 0
-113 115 117 0
-113 117 -118 0
113 -117 -118 0
113 117 118 0
-113 -117 118 0
115 -119 0
-102 -119 0
102 -115 119 0
102 -115 -120 0
-102 115 -120 0
102 115 120 0
-102 -115 120 0
119 -121 0
-121 -123 0
-119 121 123 0
-119 123 -124 0
119 -123 -124 0
119 123 124 0
-119 -123 124 0
121 -125 0
-105 -125 0
105 -121 125 0
105 -121 -126 0
-105 121 -126 0
105 121 126 0
-105 -121 126 0
-80 125 0
-48 -80 0
48 80 -125 0
-46 48 -125 0
-46 -48 125 0
46 48 125 0
46 -48 -125 0
-45 99 0
-45 96 0
45 -96 -99 0
-44 -96 -99 0
-44 96 99 0
44 96 -99 0
44 -96 99 0
43 -111 -117 0
43 -45 -117 0
43 -45 -111 0
-43 111 117 0
-43 45 117 0
-43 45 111 0
-42 -43 117 0
-42 -43 111 0
-42 -43 45 0
42 43 -117 0
42 43 -111 0
42 43 -45 0
42 -45 -111 -117 0
-42 45 111 117 0
41 -99 -102 0
41 -43 -102 0
41 -43 -99 0
-41 99 102 0
-41 43 102 0
-41 43 99 0
-40 -41 102 0
-40 -41 99 0
-40 -41 43 0
40 41 -102 0
40 41 -99 0
40 41 -43 0
40 -43 -99 -102 0
-40 43 99 102 0
39 -117 -123 0
39 -41 -123 0
39 -41 -117 0
-39 117 123 0
-39 41 123 0
-39 41 117 0
-38 -39 123 0
-38 -39 117 0
-38 -39 41 0
38 39 -123 0
38 39 -117 0
38 39 -41 0
38 -41 -117 -123 0
-38 41 117 123 0
37 -102 -105 0
37 -39 -105 0
37 -39 -102 0
-37 102 105 0
-37 39 105 0
-37 39 102 0
-36 -37 105 0
-36 -37 102 0
-36 -37 39 0
36 37 -105 0
36 37 -102 0
36 37 -39 0
36 -39 -102 -105 0
-36 39 102 105 0
35 -48 -123 0
35 -37 -48 0
35 -37 -123 0
-35 48 123 0
-35 37 48 0
-35 37 123 0
-34 -35 48 0
-34 -35 123 0
-34 -35 37 0
34 35 -48 0
34 35 -123 0
34 35 -37 0
34 -37 -48 -123 0
-34 37 48 123 0
-33 105 0
-33 35 0
33 -35 -105 0
-32 -35 -105 0
-32 35 105 0
32 35 -105 0
32 -35 105 0
-31 48 0
-31 33 0
31 -33 -48 0
-30 -33 -48 0
-30 33 48 0
30 33 -48 0
30 -33 48 0
-29 42 0
-29 96 0
29 -42 -96 0
-28 -42 -96 0
-28 42 96 0
28 -42 96 0
28 42 -96 0
27 -40 -111 0
27 -29 -40 0
27 -29 -111 0
-27 40 111 0
-27 29 40 0
-27 29 111 0
-26 -27 40 0
-26 -27 111 0
-26 -27 29 0
26 27 -40 0
26 27 -111 0
26 27 -29 0
26 -29 -40 -111 0
-26 29 40 111 0
25 -38 -99 0
25 -27 -38 0
25 -27 -99 0
-25 38 99 0
-25 27 38 0
-25 27 99 0
-24 -25 38 0
-24 -25 99 0
-24 -25 27 0
24 25 -38 0
24 25 -99 0
24 25 -27 0
24 -27 -38 -99 0
-24 27 38 99 0
23 -36 -117 0
23 -25 -36 0
23 -25 -117 0
-23 36 117 0
-23 25 36 0
-23 25 117 0
-22 -23 36 0
-22 -23 117 0
-22 -23 25 0
22 23 -36 0
22 23 -117 0
22 23 -25 0
22 -25 -36 -117 0
-22 25 36 117 0
21 -34 -102 0
21 -23 -34 0
21 -23 -102 0
-21 34 102 0
-21 23 34 0
-21 23 102 0
-20 -21 34 0
-20 -21 102 0
-20 -21 23 0
20 21 -34 0
20 21 -102 0
20 21 -23 0
20 -23 -34 -102 0
-20 23 34 102 0
19 -32 -123 0
19 -21 -32 0
19 -21 -123 0
-19 32 123 0
-19 21 32 0
-19 21 123 0
-18 -19 32 0
-18 -19 123 0
-18 -19 21 0
18 19 -32 0
18 19 -123 0
18 19 -21 0
18 -21 -32 -123 0
-18 21 32 123 0
17 -30 -105 0
17 -19 -30 0
17 -19 -105 0
-17 30 105 0
-17 19 30 0
-17 19 105 0
-16 -17 30 0
-16 -17 105 0
-16 -17 19 0
16 17 -30 0
16 17 -105 0
16 17 -19 0
16 -19 -30 -105 0
-16 19 30 105 0
15 -31 -48 0
15 -17 -31 0
15 -17 -48 0
-15 31 48 0
-15 17 31 0
-15 17 48 0
-14 -15 31 0
-14 -15 48 0
-14 -15 17 0
14 15 -31 0
14 15 -48 0
14 15 -17 0
14 -17 -31 -48 0
-14 17 31 48 0
-13 -96 0
-13 -111 0
13 96 111 0
-12 96 111 0
-12 -96 -111 0
12 -96 111 0
12 96 -111 0
13 -64 0
-44 -64 0
-13 44 64 0
-13 44 -69 0
13 -44 -69 0
13 44 69 0
-13 -44 69 0
64 -74 0
-28 -74 0
28 -64 74 0
28 -64 -81 0
-28 64 -81 0
28 64 81 0
-28 -64 81 0
74 -87 0
-26 -87 0
26 -74 87 0
26 -74 -91 0
-26 74 -91 0
26 74 91 0
-26 -74 91 0
-67 87 0
-24 -67 0
24 67 -87 0
24 -87 -95 0
-24 87 -95 0
24 87 95 0
-24 -87 95 0
67 -110 0
-22 -110 0
22 -67 110 0
22 -67 -98 0
-22 67 -98 0
22 67 98 0
-22 -67 98 0
110 -116 0
-20 -116 0
20 -110 116 0
20 -101 -110 0
-20 -101 110 0
20 101 110 0
-20 101 -110 0
116 -122 0
-18 -122 0
18 -116 122 0
18 -104 -116 0
-18 -104 116 0
18 104 116 0
-18 104 -116 0
-47 122 0
-16 -47 0
16 47 -122 0
-11 16 -122 0
-11 -16 122 0
11 16 122 0
11 -16 -122 0
-10 47 0
-10 -14 0
10 14 -47 0
-9 14 -47 0
-9 -14 47 0
9 14 47 0
9 -14 -47 0
-8 10 0
-8 -15 0
8 -10 15 0
-7 -10 15 0
-7 10 -15 0
7 10 15 0
7 -10 -15 0
-6 60 0
-6 96 0
6 -60 -96 0
-60 96 0
60 -96 0
5 -58 -111 0
5 -6 -58 0
5 -6 -111 0
-5 58 111 0
-5 6 58 0
-5 6 111 0
-5 58 0
-5 111 0
-5 6 0
6 58 111 0
4 -44 -56 0
4 -5 -56 0
4 -5 -44 0
-4 44 56 0
-4 5 56 0
-4 5 44 0
-4 56 0
-4 44 0
-4 5 0
5 44 56 0
3 -28 -54 0
3 -4 -54 0
3 -4 -28 0
-3 28 54 0
-3 4 54 0
-3 4 28 0
-3 54 0
-3 28 0
-3 4 0
4 28 54 0
2 -26 -52 0
2 -3 -52 0
2 -3 -26 0
-2 26 52 0
-2 3 52 0
-2 3 26 0
-2 52 0
-2 26 0
-2 3 0
3 26 52 0
1 -24 -50 0
1 -2 -50 0
1 -2 -24 0
-1 24 50 0
-1 2 50 0
-1 2 24 0
-1 50 0
-1 24 0
-1 2 0
2 24 50 0
-22 -63 78 0
-1 -63 78 0
-1 -22 78 0
22 63 -78 0
1 63 -78 0
1 22 -78 0
-63 78 0
-22 78 0
-1 78 0
-1 -22 -63 0
-20 -71 89 0
-71 -78 89 0
-20 -78 89 0
20 71 -89 0
71 78 -89 0
20 78 -89 0
-71 89 0
-20 89 0
-78 89 0
-20 -71 -78 0
-18 -66 76 0
-66 76 -89 0
-18 76 -89 0
18 66 -76 0
66 -76 89 0
18 -76 89 0
-66 76 0
-18 76 0
76 -89 0
-18 -66 -89 0
16 -85 0
76 -85 0
-16 -76 85 0
-16 76 0
16 -76 0
14 -72 0
-72 85 0
-14 72 -85 0
-14 85 0
14 -85 0
-15 -72 0
-15 72 0
15 -72 0
